10 10 4

0 347 443 405 286 269 135 147 78 295 
418 0 60 76 384 348 99 141 273 279 
220 366 0 354 210 187 268 98 110 117 
338 235 275 0 195 288 218 100 281 193 
392 378 221 393 0 51 439 419 141 286 
224 233 58 209 159 0 130 62 319 267 
280 368 84 103 412 476 0 329 106 264 
497 363 251 396 254 128 323 0 146 336 
261 272 428 254 202 367 262 362 0 476 
99 130 294 316 117 368 106 170 279 0 

102.7 0 8
102.7 1 4
102.7 2 0
102.7 3 2
102.7 4 5
102.7 5 4
102.7 6 1
102.7 7 6
102.7 8 6
102.7 9 8

